; vmt-chc-benchmarks/./cav12/bubblesort_init-3_000.smt2
(set-logic HORN)

(declare-fun |state| ( Bool Bool Bool Bool Bool Real Real Real Real Real Real Real Real Real Real Real Real Real Real Real Real Real Real Real Real Real Real Real Real Real Real Real Real Real Real ) Bool)

(assert
  (forall ( (A Bool) (B Bool) (C Bool) (D Real) (E Real) (F Real) (G Real) (H Real) (I Real) (J Real) (K Real) (L Real) (M Real) (N Real) (O Real) (P Real) (Q Real) (R Real) (S Real) (T Real) (U Real) (V Real) (W Real) (X Real) (Y Real) (Z Real) (A1 Real) (B1 Real) (C1 Real) (D1 Real) (E1 Real) (F1 Real) (G1 Real) (H1 Bool) (I1 Bool) ) 
    (=>
      (and
        (and (not B) (not C) (not I1) (not H1) (not A))
      )
      (state C
       B
       A
       H1
       I1
       E
       D
       F
       G
       H
       I
       K
       L
       Q
       S
       T
       U
       V
       W
       X
       Y
       Z
       A1
       B1
       C1
       D1
       E1
       F1
       G1
       J
       M
       N
       O
       P
       R)
    )
  )
)
(assert
  (forall ( (A Bool) (B Bool) (C Bool) (D Bool) (E Bool) (F Bool) (G Bool) (H Bool) (I Real) (J Real) (K Real) (L Real) (M Real) (N Real) (O Real) (P Real) (Q Real) (R Real) (S Real) (T Real) (U Real) (V Real) (W Real) (X Real) (Y Real) (Z Real) (A1 Real) (B1 Real) (C1 Real) (D1 Real) (E1 Real) (F1 Real) (G1 Real) (H1 Real) (I1 Real) (J1 Real) (K1 Real) (L1 Real) (M1 Real) (N1 Real) (O1 Real) (P1 Real) (Q1 Real) (R1 Real) (S1 Real) (T1 Real) (U1 Real) (V1 Real) (W1 Real) (X1 Real) (Y1 Real) (Z1 Real) (A2 Real) (B2 Real) (C2 Real) (D2 Real) (E2 Real) (F2 Real) (G2 Real) (H2 Real) (I2 Real) (J2 Real) (K2 Real) (L2 Real) (M2 Real) (N2 Real) (O2 Real) (P2 Real) (Q2 Real) (R2 Real) (S2 Real) (T2 Real) (U2 Real) (V2 Real) (W2 Bool) (X2 Bool) ) 
    (=>
      (and
        (state C
       B
       A
       W2
       X2
       L
       J
       N
       P
       R
       T
       X
       Z
       J1
       N1
       P1
       R1
       T1
       V1
       X1
       Z1
       B2
       D2
       F2
       H2
       J2
       L2
       N2
       P2
       U
       A1
       C1
       E1
       G1
       K1)
        (let ((a!1 (or (and (= Y1 0.0) (= V1 Y1) (= S A1))
               (and (= Y1 1.0) (not (= Y1 0.0)) (= V1 Y1) (= S C1))
               (and (= Y1 2.0)
                    (not (= Y1 1.0))
                    (not (= Y1 0.0))
                    (= V1 Y1)
                    (= S E1))
               (and (= Y1 3.0)
                    (not (= Y1 2.0))
                    (not (= Y1 1.0))
                    (not (= Y1 0.0))
                    (= V1 Y1)
                    (= S G1))
               (and (= Y1 4.0)
                    (not (= Y1 3.0))
                    (not (= Y1 2.0))
                    (not (= Y1 1.0))
                    (not (= Y1 0.0))
                    (= V1 Y1)
                    (= S K1))))
      (a!28 (or (and (= S1 U) (= S1 0.0) (= O A1))
                (and (= S1 U) (= S1 1.0) (not (= S1 0.0)) (= O C1))
                (and (= S1 U)
                     (= S1 2.0)
                     (not (= S1 1.0))
                     (not (= S1 0.0))
                     (= O E1))
                (and (= S1 U)
                     (= S1 3.0)
                     (not (= S1 2.0))
                     (not (= S1 1.0))
                     (not (= S1 0.0))
                     (= O G1))
                (and (= S1 U)
                     (= S1 4.0)
                     (not (= S1 3.0))
                     (not (= S1 2.0))
                     (not (= S1 1.0))
                     (not (= S1 0.0))
                     (= O K1))))
      (a!35 (and (not A)
                 (not B)
                 C
                 (not H)
                 (not G)
                 (not F)
                 (not E)
                 D
                 W2
                 (not X2)
                 (<= 0.0 V)
                 (= J I)
                 (= L K)
                 (= N M)
                 (= P O)
                 (= R Q)
                 (= T S)
                 (= X W)
                 (= Z Y)
                 (= J1 I1)
                 (= N1 M1)
                 (= L1 K1)
                 (= P1 O1)
                 (= R1 Q1)
                 (= H1 G1)
                 (= T1 S1)
                 (= F1 E1)
                 (= V1 U1)
                 (= D1 C1)
                 (= X1 W1)
                 (= B1 A1)
                 (= Z1 Y1)
                 (= B2 A2)
                 (= D2 C2)
                 (= F2 E2)
                 (= H2 G2)
                 (= J2 I2)
                 (= L2 K2)
                 (= N2 M2)
                 (= P2 O2)
                 (= (+ V (* (- 1.0) U)) (- 1.0))))
      (a!37 (and (not A)
                 (not B)
                 C
                 (not H)
                 G
                 (not F)
                 E
                 (not D)
                 W2
                 (not X2)
                 (not (<= 0.0 V2))
                 (= J I)
                 (= L K)
                 (= N M)
                 (= P O)
                 (= R Q)
                 (= T S)
                 (= X W)
                 (= Z Y)
                 (= J1 I1)
                 (= N1 M1)
                 (= L1 K1)
                 (= P1 O1)
                 (= R1 Q1)
                 (= H1 G1)
                 (= T1 S1)
                 (= F1 E1)
                 (= V1 U1)
                 (= D1 C1)
                 (= X1 W1)
                 (= B1 A1)
                 (= Z1 Y1)
                 (= B2 A2)
                 (= D2 C2)
                 (= V 0.0)
                 (= F2 E2)
                 (= H2 G2)
                 (= J2 I2)
                 (= L2 K2)
                 (= N2 M2)
                 (= P2 O2)
                 (= (+ U (* (- 1.0) V2)) 1.0))))
(let ((a!2 (and a!1 (= O2 0.0) (= W1 A1) (= (+ V1 (* (- 1.0) O2)) (- 1.0))))
      (a!3 (and a!1
                (= O2 1.0)
                (not (= O2 0.0))
                (= W1 C1)
                (= (+ V1 (* (- 1.0) O2)) (- 1.0))))
      (a!4 (and a!1
                (= O2 2.0)
                (not (= O2 1.0))
                (not (= O2 0.0))
                (= W1 E1)
                (= (+ V1 (* (- 1.0) O2)) (- 1.0))))
      (a!5 (and a!1
                (= O2 3.0)
                (not (= O2 2.0))
                (not (= O2 1.0))
                (not (= O2 0.0))
                (= W1 G1)
                (= (+ V1 (* (- 1.0) O2)) (- 1.0))))
      (a!6 (and a!1
                (= O2 4.0)
                (not (= O2 3.0))
                (not (= O2 2.0))
                (not (= O2 1.0))
                (not (= O2 0.0))
                (= W1 K1)
                (= (+ V1 (* (- 1.0) O2)) (- 1.0))))
      (a!29 (and a!28 (= K2 0.0) (= M1 A1) (= (+ K2 (* (- 1.0) U)) 1.0)))
      (a!30 (and a!28
                 (= K2 1.0)
                 (not (= K2 0.0))
                 (= M1 C1)
                 (= (+ K2 (* (- 1.0) U)) 1.0)))
      (a!31 (and a!28
                 (= K2 2.0)
                 (not (= K2 1.0))
                 (not (= K2 0.0))
                 (= M1 E1)
                 (= (+ K2 (* (- 1.0) U)) 1.0)))
      (a!32 (and a!28
                 (= K2 3.0)
                 (not (= K2 2.0))
                 (not (= K2 1.0))
                 (not (= K2 0.0))
                 (= M1 G1)
                 (= (+ K2 (* (- 1.0) U)) 1.0)))
      (a!33 (and a!28
                 (= K2 4.0)
                 (not (= K2 3.0))
                 (not (= K2 2.0))
                 (not (= K2 1.0))
                 (not (= K2 0.0))
                 (= M1 K1)
                 (= (+ K2 (* (- 1.0) U)) 1.0)))
      (a!38 (and (not A)
                 B
                 (not C)
                 (not H)
                 (not G)
                 F
                 (not E)
                 (not D)
                 (not W2)
                 (not X2)
                 a!1
                 (= J I)
                 (not (= O2 4.0))
                 (not (= O2 3.0))
                 (not (= O2 2.0))
                 (not (= O2 1.0))
                 (not (= O2 0.0))
                 (= L K)
                 (= N M)
                 (= P O)
                 (= R Q)
                 (= X W)
                 (= Z Y)
                 (= J1 I1)
                 (= N1 M1)
                 (= L1 K1)
                 (= P1 O1)
                 (= R1 Q1)
                 (= H1 G1)
                 (= T1 S1)
                 (= F1 E1)
                 (= V1 U1)
                 (= D1 C1)
                 (= X1 W1)
                 (= B1 A1)
                 (= B2 A2)
                 (= D2 C2)
                 (= V U)
                 (= F2 E2)
                 (= H2 G2)
                 (= J2 I2)
                 (= L2 K2)
                 (= N2 M2)
                 (= (+ V1 (* (- 1.0) O2)) (- 1.0))))
      (a!39 (and (not A)
                 B
                 (not C)
                 (not H)
                 G
                 F
                 (not E)
                 (not D)
                 W2
                 (not X2)
                 a!28
                 (= J I)
                 (= L K)
                 (= N M)
                 (not (= K2 4.0))
                 (not (= K2 3.0))
                 (not (= K2 2.0))
                 (not (= K2 1.0))
                 (not (= K2 0.0))
                 (= R Q)
                 (= T S)
                 (= X W)
                 (= Z Y)
                 (= J1 I1)
                 (= N1 M1)
                 (= L1 K1)
                 (= P1 O1)
                 (= R1 Q1)
                 (= H1 G1)
                 (= F1 E1)
                 (= V1 U1)
                 (= D1 C1)
                 (= X1 W1)
                 (= B1 A1)
                 (= Z1 Y1)
                 (= B2 A2)
                 (= D2 C2)
                 (= V U)
                 (= F2 E2)
                 (= H2 G2)
                 (= J2 I2)
                 (= N2 M2)
                 (= P2 O2)
                 (= (+ K2 (* (- 1.0) U)) 1.0))))
(let ((a!7 (or (and (or a!2 a!3 a!4 a!5 a!6) (<= S W1) (= M2 1.0))
               (and (or a!2 a!3 a!4 a!5 a!6) (not (<= S W1)) (= M2 0.0))))
      (a!34 (and (not A)
                 B
                 (not C)
                 (not H)
                 G
                 (not F)
                 E
                 (not D)
                 W2
                 (not X2)
                 (or a!29 a!30 a!31 a!32 a!33)
                 (<= M1 O)
                 (not (<= 4.0 V))
                 (= J I)
                 (= L K)
                 (= N M)
                 (= R Q)
                 (= T S)
                 (= X W)
                 (= Z Y)
                 (= J1 I1)
                 (= L1 K1)
                 (= P1 O1)
                 (= R1 Q1)
                 (= H1 G1)
                 (= F1 E1)
                 (= V1 U1)
                 (= D1 C1)
                 (= X1 W1)
                 (= B1 A1)
                 (= Z1 Y1)
                 (= B2 A2)
                 (= D2 C2)
                 (= F2 E2)
                 (= H2 G2)
                 (= J2 I2)
                 (= N2 M2)
                 (= P2 O2)
                 (= (+ V (* (- 1.0) U)) 1.0))))
(let ((a!8 (and a!7
                (= A2 A1)
                (= V1 E2)
                (= W M2)
                (not (= W 0.0))
                (= M E2)
                (= M 0.0)
                (= (+ V1 (* (- 1.0) C2)) (- 1.0))))
      (a!9 (and a!7
                (= A2 C1)
                (= V1 E2)
                (= W M2)
                (not (= W 0.0))
                (= M E2)
                (= M 1.0)
                (not (= M 0.0))
                (= (+ V1 (* (- 1.0) C2)) (- 1.0))))
      (a!10 (and a!7
                 (= A2 E1)
                 (= V1 E2)
                 (= W M2)
                 (not (= W 0.0))
                 (= M E2)
                 (= M 2.0)
                 (not (= M 1.0))
                 (not (= M 0.0))
                 (= (+ V1 (* (- 1.0) C2)) (- 1.0))))
      (a!11 (and a!7
                 (= A2 G1)
                 (= V1 E2)
                 (= W M2)
                 (not (= W 0.0))
                 (= M E2)
                 (= M 3.0)
                 (not (= M 2.0))
                 (not (= M 1.0))
                 (not (= M 0.0))
                 (= (+ V1 (* (- 1.0) C2)) (- 1.0))))
      (a!12 (and a!7
                 (= A2 K1)
                 (= V1 E2)
                 (= W M2)
                 (not (= W 0.0))
                 (= M E2)
                 (= M 4.0)
                 (not (= M 3.0))
                 (not (= M 2.0))
                 (not (= M 1.0))
                 (not (= M 0.0))
                 (= (+ V1 (* (- 1.0) C2)) (- 1.0))))
      (a!36 (and (not A)
                 B
                 (not C)
                 (not H)
                 (not G)
                 F
                 (not E)
                 D
                 (not W2)
                 (not X2)
                 a!7
                 (= J I)
                 (= L K)
                 (= P O)
                 (= R Q)
                 (= Z Y)
                 (= J1 I1)
                 (= N1 M1)
                 (= L1 K1)
                 (= P1 O1)
                 (= R1 Q1)
                 (= H1 G1)
                 (= T1 S1)
                 (= F1 E1)
                 (= V1 E2)
                 (= V1 U1)
                 (= D1 C1)
                 (= B1 A1)
                 (= B2 A2)
                 (= W M2)
                 (not (= W 0.0))
                 (= V U)
                 (= H2 G2)
                 (= J2 I2)
                 (= L2 K2)
                 (= M E2)
                 (not (= M 4.0))
                 (not (= M 3.0))
                 (not (= M 2.0))
                 (not (= M 1.0))
                 (not (= M 0.0))
                 (= (+ V1 (* (- 1.0) C2)) (- 1.0)))))
(let ((a!13 (or (and (or a!8 a!9 a!10 a!11 a!12)
                     (= Q1 C2)
                     (= Q1 0.0)
                     (= Y A2)
                     (= K A1))
                (and (or a!8 a!9 a!10 a!11 a!12)
                     (= Q1 C2)
                     (= Q1 1.0)
                     (not (= Q1 0.0))
                     (= Y A2)
                     (= K C1))
                (and (or a!8 a!9 a!10 a!11 a!12)
                     (= Q1 C2)
                     (= Q1 2.0)
                     (not (= Q1 1.0))
                     (not (= Q1 0.0))
                     (= Y A2)
                     (= K E1))
                (and (or a!8 a!9 a!10 a!11 a!12)
                     (= Q1 C2)
                     (= Q1 3.0)
                     (not (= Q1 2.0))
                     (not (= Q1 1.0))
                     (not (= Q1 0.0))
                     (= Y A2)
                     (= K G1))
                (and (or a!8 a!9 a!10 a!11 a!12)
                     (= Q1 C2)
                     (= Q1 4.0)
                     (not (= Q1 3.0))
                     (not (= Q1 2.0))
                     (not (= Q1 1.0))
                     (not (= Q1 0.0))
                     (= Y A2)
                     (= K K1)))))
(let ((a!14 (or (and a!13
                     (= K1 S2)
                     (= I1 R2)
                     (= Q I1)
                     (= K Q)
                     (= I E2)
                     (= I 3.0)
                     (not (= I 2.0))
                     (not (= I 1.0))
                     (not (= I 0.0)))
                (and a!13
                     (= G1 R2)
                     (= I1 S2)
                     (= Q I1)
                     (= K Q)
                     (= I E2)
                     (= I 4.0)
                     (not (= I 3.0))
                     (not (= I 2.0))
                     (not (= I 1.0))
                     (not (= I 0.0)))))
      (a!24 (or (and a!13
                     (= L1 K1)
                     (= H1 I1)
                     (= Q I1)
                     (= K Q)
                     (= I E2)
                     (= I 3.0)
                     (not (= I 2.0))
                     (not (= I 1.0))
                     (not (= I 0.0)))
                (and a!13
                     (= L1 I1)
                     (= H1 G1)
                     (= Q I1)
                     (= K Q)
                     (= I E2)
                     (= I 4.0)
                     (not (= I 3.0))
                     (not (= I 2.0))
                     (not (= I 1.0))
                     (not (= I 0.0))))))
(let ((a!15 (or (and a!14 (= E1 T2))
                (and a!13
                     (= G1 R2)
                     (= K1 S2)
                     (= I1 T2)
                     (= Q I1)
                     (= K Q)
                     (= I E2)
                     (= I 2.0)
                     (not (= I 1.0))
                     (not (= I 0.0)))))
      (a!25 (or (and a!24 (= F1 E1))
                (and a!13
                     (= L1 K1)
                     (= H1 G1)
                     (= F1 I1)
                     (= Q I1)
                     (= K Q)
                     (= I E2)
                     (= I 2.0)
                     (not (= I 1.0))
                     (not (= I 0.0))))))
(let ((a!16 (or (and a!15 (= C1 U2))
                (and a!13
                     (= E1 T2)
                     (= G1 R2)
                     (= K1 S2)
                     (= I1 U2)
                     (= Q I1)
                     (= K Q)
                     (= I E2)
                     (= I 1.0)
                     (not (= I 0.0)))))
      (a!26 (or (and a!25 (= D1 C1))
                (and a!13
                     (= L1 K1)
                     (= H1 G1)
                     (= F1 E1)
                     (= D1 I1)
                     (= Q I1)
                     (= K Q)
                     (= I E2)
                     (= I 1.0)
                     (not (= I 0.0))))))
(let ((a!17 (or (and a!16 (= A1 Q2))
                (and a!13
                     (= C1 U2)
                     (= E1 T2)
                     (= G1 R2)
                     (= K1 S2)
                     (= I1 Q2)
                     (= Q I1)
                     (= K Q)
                     (= I E2)
                     (= I 0.0))))
      (a!27 (and (not A)
                 B
                 (not C)
                 (not H)
                 G
                 (not F)
                 (not E)
                 (not D)
                 (not W2)
                 (not X2)
                 (or (and a!26 (= B1 A1))
                     (and a!13
                          (= L1 K1)
                          (= H1 G1)
                          (= F1 E1)
                          (= D1 C1)
                          (= B1 I1)
                          (= Q I1)
                          (= K Q)
                          (= I E2)
                          (= I 0.0)))
                 (= P O)
                 (= O1 C2)
                 (not (= O1 4.0))
                 (not (= O1 3.0))
                 (not (= O1 2.0))
                 (not (= O1 1.0))
                 (not (= O1 0.0))
                 (= N1 M1)
                 (= T1 S1)
                 (= V1 U1)
                 (= Y G2)
                 (= V U)
                 (= J2 I2)
                 (= L2 K2))))
(let ((a!18 (or (and a!17
                     (= O1 C2)
                     (= O1 3.0)
                     (not (= O1 2.0))
                     (not (= O1 1.0))
                     (not (= O1 0.0))
                     (= L1 S2)
                     (= H1 G2)
                     (= Y G2))
                (and a!17
                     (= O1 C2)
                     (= O1 4.0)
                     (not (= O1 3.0))
                     (not (= O1 2.0))
                     (not (= O1 1.0))
                     (not (= O1 0.0))
                     (= L1 G2)
                     (= H1 R2)
                     (= Y G2)))))
(let ((a!19 (or (and a!18 (= F1 T2))
                (and a!17
                     (= O1 C2)
                     (= O1 2.0)
                     (not (= O1 1.0))
                     (not (= O1 0.0))
                     (= L1 S2)
                     (= H1 R2)
                     (= F1 G2)
                     (= Y G2)))))
(let ((a!20 (or (and a!19 (= D1 U2))
                (and a!17
                     (= O1 C2)
                     (= O1 1.0)
                     (not (= O1 0.0))
                     (= L1 S2)
                     (= H1 R2)
                     (= F1 T2)
                     (= D1 G2)
                     (= Y G2)))))
(let ((a!21 (or (and a!20 (= B1 Q2))
                (and a!17
                     (= O1 C2)
                     (= O1 0.0)
                     (= L1 S2)
                     (= H1 R2)
                     (= F1 T2)
                     (= D1 U2)
                     (= B1 G2)
                     (= Y G2))
                (and a!7
                     (= J I)
                     (= L K)
                     (= N M)
                     (= R Q)
                     (= Z Y)
                     (= J1 I1)
                     (= L1 K1)
                     (= P1 O1)
                     (= R1 Q1)
                     (= H1 G1)
                     (= F1 E1)
                     (= D1 C1)
                     (= B1 A1)
                     (= B2 A2)
                     (= W M2)
                     (= W 0.0)
                     (= D2 C2)
                     (= F2 E2)
                     (= H2 G2)))))
(let ((a!22 (and (not A)
                 B
                 (not C)
                 (not H)
                 (not G)
                 (not F)
                 E
                 (not D)
                 (not W2)
                 (not X2)
                 a!21
                 (not (<= U U1))
                 (= P O)
                 (= N1 M1)
                 (= T1 S1)
                 (= V U)
                 (= J2 I2)
                 (= L2 K2)
                 (= (+ V1 (* (- 1.0) U1)) (- 1.0))))
      (a!23 (and (not A)
                 B
                 (not C)
                 (not H)
                 G
                 (not F)
                 (not E)
                 D
                 (not W2)
                 (not X2)
                 a!21
                 (<= U U1)
                 (= P O)
                 (= N1 M1)
                 (= T1 S1)
                 (= V U)
                 (= J2 I2)
                 (= L2 K2)
                 (= (+ V1 (* (- 1.0) U1)) (- 1.0)))))
  (or (and A B C (not H) G F E D W2 (not X2))
      a!22
      a!23
      a!27
      (and (not A)
           B
           (not C)
           (not H)
           (not G)
           F
           E
           D
           (not W2)
           (not X2)
           a!13
           (= P O)
           (= N1 M1)
           (= L1 K1)
           (= P1 O1)
           (= H1 G1)
           (= T1 S1)
           (= F1 E1)
           (= V1 U1)
           (= D1 C1)
           (= B1 A1)
           (= V U)
           (= H2 G2)
           (= Q I1)
           (= J2 I2)
           (= L2 K2)
           (= K Q)
           (= I E2)
           (not (= I 4.0))
           (not (= I 3.0))
           (not (= I 2.0))
           (not (= I 1.0))
           (not (= I 0.0)))
      (and (not A)
           B
           (not C)
           (not H)
           (not G)
           F
           E
           (not D)
           (not W2)
           (not X2)
           (or a!8 a!9 a!10 a!11 a!12)
           (= J I)
           (= L K)
           (= P O)
           (= R Q)
           (= Q1 C2)
           (not (= Q1 4.0))
           (not (= Q1 3.0))
           (not (= Q1 2.0))
           (not (= Q1 1.0))
           (not (= Q1 0.0))
           (= J1 I1)
           (= N1 M1)
           (= L1 K1)
           (= P1 O1)
           (= H1 G1)
           (= T1 S1)
           (= F1 E1)
           (= V1 U1)
           (= D1 C1)
           (= B1 A1)
           (= Y A2)
           (= V U)
           (= H2 G2)
           (= J2 I2)
           (= L2 K2))
      (and (not A)
           B
           (not C)
           (not H)
           G
           F
           (not E)
           D
           W2
           (not X2)
           (or a!29 a!30 a!31 a!32 a!33)
           (not (<= M1 O))
           (= J I)
           (= L K)
           (= N M)
           (= R Q)
           (= T S)
           (= X W)
           (= Z Y)
           (= J1 I1)
           (= L1 K1)
           (= P1 O1)
           (= R1 Q1)
           (= H1 G1)
           (= F1 E1)
           (= V1 U1)
           (= D1 C1)
           (= X1 W1)
           (= B1 A1)
           (= Z1 Y1)
           (= B2 A2)
           (= D2 C2)
           (= V U)
           (= F2 E2)
           (= H2 G2)
           (= J2 I2)
           (= N2 M2)
           (= P2 O2))
      a!34
      (and (not A)
           (not B)
           (not C)
           (not H)
           G
           F
           E
           D
           W2
           (not X2)
           (= J I)
           (= L K)
           (= N M)
           (= P O)
           (= R Q)
           (= T S)
           (= X W)
           (= Z Y)
           (= J1 I1)
           (= N1 M1)
           (= L1 K1)
           (= P1 O1)
           (= R1 Q1)
           (= H1 G1)
           (= T1 S1)
           (= F1 E1)
           (= V1 U1)
           (= D1 C1)
           (= X1 W1)
           (= B1 A1)
           (= Z1 Y1)
           (= B2 A2)
           (= D2 C2)
           (= V U)
           (= F2 E2)
           (= H2 G2)
           (= J2 I2)
           (= L2 K2)
           (= N2 M2)
           (= P2 O2))
      (and (not A)
           B
           C
           (not H)
           G
           F
           E
           D
           (not W2)
           (not X2)
           (= J I)
           (= L K)
           (= N M)
           (= P O)
           (= R Q)
           (= T S)
           (= X W)
           (= Z Y)
           (= J1 I1)
           (= N1 M1)
           (= L1 K1)
           (= P1 O1)
           (= R1 Q1)
           (= H1 G1)
           (= T1 S1)
           (= F1 E1)
           (= V1 U1)
           (= D1 C1)
           (= X1 W1)
           (= B1 A1)
           (= Z1 Y1)
           (= B2 A2)
           (= D2 C2)
           (= V U)
           (= F2 E2)
           (= H2 G2)
           (= J2 I2)
           (= L2 K2)
           (= N2 M2)
           (= P2 O2))
      (and (not A)
           B
           C
           (not H)
           G
           F
           E
           D
           W2
           (not X2)
           (= J I)
           (= L K)
           (= N M)
           (= P O)
           (= R Q)
           (= T S)
           (= X W)
           (= Z Y)
           (= J1 I1)
           (= N1 M1)
           (= L1 K1)
           (= P1 O1)
           (= R1 Q1)
           (= H1 G1)
           (= T1 S1)
           (= F1 E1)
           (= V1 U1)
           (= D1 C1)
           (= X1 W1)
           (= B1 A1)
           (= Z1 Y1)
           (= B2 A2)
           (= D2 C2)
           (= V U)
           (= F2 E2)
           (= H2 G2)
           (= J2 I2)
           (= L2 K2)
           (= N2 M2)
           (= P2 O2))
      (and A
           (not B)
           (not C)
           (not H)
           G
           F
           E
           D
           (not W2)
           (not X2)
           (= J I)
           (= L K)
           (= N M)
           (= P O)
           (= R Q)
           (= T S)
           (= X W)
           (= Z Y)
           (= J1 I1)
           (= N1 M1)
           (= L1 K1)
           (= P1 O1)
           (= R1 Q1)
           (= H1 G1)
           (= T1 S1)
           (= F1 E1)
           (= V1 U1)
           (= D1 C1)
           (= X1 W1)
           (= B1 A1)
           (= Z1 Y1)
           (= B2 A2)
           (= D2 C2)
           (= V U)
           (= F2 E2)
           (= H2 G2)
           (= J2 I2)
           (= L2 K2)
           (= N2 M2)
           (= P2 O2))
      (and A
           (not B)
           (not C)
           (not H)
           G
           F
           E
           D
           W2
           (not X2)
           (= J I)
           (= L K)
           (= N M)
           (= P O)
           (= R Q)
           (= T S)
           (= X W)
           (= Z Y)
           (= J1 I1)
           (= N1 M1)
           (= L1 K1)
           (= P1 O1)
           (= R1 Q1)
           (= H1 G1)
           (= T1 S1)
           (= F1 E1)
           (= V1 U1)
           (= D1 C1)
           (= X1 W1)
           (= B1 A1)
           (= Z1 Y1)
           (= B2 A2)
           (= D2 C2)
           (= V U)
           (= F2 E2)
           (= H2 G2)
           (= J2 I2)
           (= L2 K2)
           (= N2 M2)
           (= P2 O2))
      (and A
           (not B)
           C
           (not H)
           G
           F
           E
           D
           (not W2)
           (not X2)
           (= J I)
           (= L K)
           (= N M)
           (= P O)
           (= R Q)
           (= T S)
           (= X W)
           (= Z Y)
           (= J1 I1)
           (= N1 M1)
           (= L1 K1)
           (= P1 O1)
           (= R1 Q1)
           (= H1 G1)
           (= T1 S1)
           (= F1 E1)
           (= V1 U1)
           (= D1 C1)
           (= X1 W1)
           (= B1 A1)
           (= Z1 Y1)
           (= B2 A2)
           (= D2 C2)
           (= V U)
           (= F2 E2)
           (= H2 G2)
           (= J2 I2)
           (= L2 K2)
           (= N2 M2)
           (= P2 O2))
      (and A
           (not B)
           C
           (not H)
           G
           F
           E
           D
           W2
           (not X2)
           (= J I)
           (= L K)
           (= N M)
           (= P O)
           (= R Q)
           (= T S)
           (= X W)
           (= Z Y)
           (= J1 I1)
           (= N1 M1)
           (= L1 K1)
           (= P1 O1)
           (= R1 Q1)
           (= H1 G1)
           (= T1 S1)
           (= F1 E1)
           (= V1 U1)
           (= D1 C1)
           (= X1 W1)
           (= B1 A1)
           (= Z1 Y1)
           (= B2 A2)
           (= D2 C2)
           (= V U)
           (= F2 E2)
           (= H2 G2)
           (= J2 I2)
           (= L2 K2)
           (= N2 M2)
           (= P2 O2))
      (and A
           B
           (not C)
           (not H)
           G
           F
           E
           D
           (not W2)
           (not X2)
           (= J I)
           (= L K)
           (= N M)
           (= P O)
           (= R Q)
           (= T S)
           (= X W)
           (= Z Y)
           (= J1 I1)
           (= N1 M1)
           (= L1 K1)
           (= P1 O1)
           (= R1 Q1)
           (= H1 G1)
           (= T1 S1)
           (= F1 E1)
           (= V1 U1)
           (= D1 C1)
           (= X1 W1)
           (= B1 A1)
           (= Z1 Y1)
           (= B2 A2)
           (= D2 C2)
           (= V U)
           (= F2 E2)
           (= H2 G2)
           (= J2 I2)
           (= L2 K2)
           (= N2 M2)
           (= P2 O2))
      (and A
           B
           C
           (not H)
           G
           F
           E
           D
           (not W2)
           (not X2)
           (= J I)
           (= L K)
           (= N M)
           (= P O)
           (= R Q)
           (= T S)
           (= X W)
           (= Z Y)
           (= J1 I1)
           (= N1 M1)
           (= L1 K1)
           (= P1 O1)
           (= R1 Q1)
           (= H1 G1)
           (= T1 S1)
           (= F1 E1)
           (= V1 U1)
           (= D1 C1)
           (= X1 W1)
           (= B1 A1)
           (= Z1 Y1)
           (= B2 A2)
           (= D2 C2)
           (= V U)
           (= F2 E2)
           (= H2 G2)
           (= J2 I2)
           (= L2 K2)
           (= N2 M2)
           (= P2 O2))
      (and (not A)
           (not B)
           (not C)
           (not H)
           (not G)
           (not F)
           (not E)
           D
           (not W2)
           (not X2)
           (= J I)
           (= L K)
           (= N M)
           (= P O)
           (= R Q)
           (= T S)
           (= X W)
           (= Z Y)
           (= J1 I1)
           (= N1 M1)
           (= L1 4.0)
           (= P1 O1)
           (= R1 Q1)
           (= H1 3.0)
           (= T1 S1)
           (= F1 2.0)
           (= V1 U1)
           (= D1 1.0)
           (= X1 W1)
           (= B1 0.0)
           (= Z1 Y1)
           (= B2 A2)
           (= D2 C2)
           (= V 4.0)
           (= F2 E2)
           (= H2 G2)
           (= J2 I2)
           (= L2 K2)
           (= N2 M2)
           (= P2 O2))
      (and (not A)
           (not B)
           C
           (not H)
           (not G)
           (not F)
           E
           (not D)
           (not W2)
           (not X2)
           (not (<= U 0.0))
           (= J I)
           (= L K)
           (= N M)
           (= P O)
           (= R Q)
           (= T S)
           (= X W)
           (= Z Y)
           (= U1 0.0)
           (= J1 I1)
           (= N1 M1)
           (= L1 K1)
           (= P1 O1)
           (= R1 Q1)
           (= H1 G1)
           (= T1 S1)
           (= F1 E1)
           (= D1 C1)
           (= X1 W1)
           (= B1 A1)
           (= Z1 Y1)
           (= B2 A2)
           (= D2 C2)
           (= V U)
           (= F2 E2)
           (= H2 G2)
           (= J2 I2)
           (= L2 K2)
           (= N2 M2)
           (= P2 O2))
      (and (not A)
           (not B)
           C
           (not H)
           G
           (not F)
           (not E)
           D
           (not W2)
           (not X2)
           (<= U 0.0)
           (= J I)
           (= L K)
           (= N M)
           (= P O)
           (= R Q)
           (= T S)
           (= X W)
           (= Z Y)
           (= U1 0.0)
           (= J1 I1)
           (= N1 M1)
           (= L1 K1)
           (= P1 O1)
           (= R1 Q1)
           (= H1 G1)
           (= T1 S1)
           (= F1 E1)
           (= D1 C1)
           (= X1 W1)
           (= B1 A1)
           (= Z1 Y1)
           (= B2 A2)
           (= D2 C2)
           (= V U)
           (= F2 E2)
           (= H2 G2)
           (= J2 I2)
           (= L2 K2)
           (= N2 M2)
           (= P2 O2))
      a!35
      a!36
      a!37
      a!38
      a!39
      (and (not A)
           B
           (not C)
           (not H)
           (not G)
           (not F)
           E
           D
           (not W2)
           (not X2)
           (= J I)
           (= L K)
           (= N M)
           (= P O)
           (= R Q)
           (= T S)
           (= X W)
           (= Z Y)
           (not (= Y1 4.0))
           (not (= Y1 3.0))
           (not (= Y1 2.0))
           (not (= Y1 1.0))
           (not (= Y1 0.0))
           (= J1 I1)
           (= N1 M1)
           (= L1 K1)
           (= P1 O1)
           (= R1 Q1)
           (= H1 G1)
           (= T1 S1)
           (= F1 E1)
           (= V1 Y1)
           (= V1 U1)
           (= D1 C1)
           (= X1 W1)
           (= B1 A1)
           (= B2 A2)
           (= D2 C2)
           (= V U)
           (= F2 E2)
           (= H2 G2)
           (= J2 I2)
           (= L2 K2)
           (= N2 M2)
           (= P2 O2))
      (and (not A)
           B
           (not C)
           (not H)
           G
           (not F)
           E
           D
           W2
           (not X2)
           (= J I)
           (= L K)
           (= N M)
           (= P O)
           (= R Q)
           (= T S)
           (= X W)
           (= Z Y)
           (= S1 U)
           (not (= S1 4.0))
           (not (= S1 3.0))
           (not (= S1 2.0))
           (not (= S1 1.0))
           (not (= S1 0.0))
           (= J1 I1)
           (= N1 M1)
           (= L1 K1)
           (= P1 O1)
           (= R1 Q1)
           (= H1 G1)
           (= F1 E1)
           (= V1 U1)
           (= D1 C1)
           (= X1 W1)
           (= B1 A1)
           (= Z1 Y1)
           (= B2 A2)
           (= D2 C2)
           (= V U)
           (= F2 E2)
           (= H2 G2)
           (= J2 I2)
           (= L2 K2)
           (= N2 M2)
           (= P2 O2)))))))))))))))))
      )
      (state D
       E
       F
       G
       H
       K
       I
       M
       O
       Q
       S
       W
       Y
       I1
       M1
       O1
       Q1
       S1
       U1
       W1
       Y1
       A2
       C2
       E2
       G2
       I2
       K2
       M2
       O2
       V
       B1
       D1
       F1
       H1
       L1)
    )
  )
)
(assert
  (forall ( (A Bool) (B Bool) (C Bool) (D Real) (E Real) (F Real) (G Real) (H Real) (I Real) (J Real) (K Real) (L Real) (M Real) (N Real) (O Real) (P Real) (Q Real) (R Real) (S Real) (T Real) (U Real) (V Real) (W Real) (X Real) (Y Real) (Z Real) (A1 Real) (B1 Real) (C1 Real) (D1 Real) (E1 Real) (F1 Real) (G1 Real) (H1 Bool) (I1 Bool) ) 
    (=>
      (and
        (state C
       B
       A
       H1
       I1
       E
       D
       F
       G
       H
       I
       K
       L
       Q
       S
       T
       U
       V
       W
       X
       Y
       Z
       A1
       B1
       C1
       D1
       E1
       F1
       G1
       J
       M
       N
       O
       P
       R)
        (and (= B true) (= C true) (not I1) (= H1 true) (= A true))
      )
      false
    )
  )
)

(check-sat)
(exit)
